This is Ipopt version 3.10.1, running with linear solver mumps.

Number of nonzeros in equality constraint Jacobian...:      141
Number of nonzeros in inequality constraint Jacobian.:        0
Number of nonzeros in Lagrangian Hessian.............:     2019

Total number of variables............................:       72
                     variables with only lower bounds:        0
                variables with lower and upper bounds:       72
                     variables with only upper bounds:        0
Total number of equality constraints.................:       47
Total number of inequality constraints...............:        0
        inequality constraints with only lower bounds:        0
   inequality constraints with lower and upper bounds:        0
        inequality constraints with only upper bounds:        0

iter    objective    inf_pr   inf_du lg(mu)  ||d||  lg(rg) alpha_du alpha_pr  ls
   0 -1.1947190e-03 3.21e-12 4.13e-03  -1.0 0.00e+00    -  0.00e+00 0.00e+00   0
   1 -1.1881428e-03 1.69e-10 6.30e-04  -1.7 2.03e-02    -  9.89e-01 1.00e+00f  1
   2 -1.1996694e-03 2.22e-16 1.15e-05  -2.5 4.27e-02    -  1.00e+00 1.00e+00f  1
   3 -1.3940205e-03 2.22e-16 1.71e-04  -3.8 3.00e-02    -  9.65e-01 1.00e+00f  1
   4 -3.0936187e-03 1.33e-15 2.30e-03  -5.7 1.09e-01  -2.0 7.75e-01 1.00e+00f  1
   5 -5.8154315e-03 1.23e-12 4.67e-03  -5.7 1.52e-01  -1.6 8.73e-01 5.02e-01f  1
   6 -8.1072203e-03 2.07e-12 5.57e-03  -5.7 7.81e-02  -1.1 1.00e+00 4.84e-01f  1
   7 -9.8908076e-03 4.41e-13 5.82e-03  -5.7 2.97e-02  -0.7 1.00e+00 7.87e-01f  1
   8 -1.0350712e-02 4.24e-13 3.31e-02  -5.7 1.78e-01  -1.2 1.00e+00 3.79e-02f  1
   9 -1.3157318e-02 2.22e-16 6.02e-03  -5.7 3.57e-02  -0.8 1.00e+00 1.00e+00f  1
iter    objective    inf_pr   inf_du lg(mu)  ||d||  lg(rg) alpha_du alpha_pr  ls
  10 -1.6106757e-02 2.22e-16 8.99e-02  -5.7 6.53e-01  -1.3 9.69e-01 5.10e-02f  1
  11 -1.8247192e-02 3.74e-12 1.86e-02  -5.7 6.52e-02  -0.8 1.00e+00 3.55e-01f  1
  12 -2.3647382e-02 3.49e-12 7.16e-02  -5.7 8.45e-01  -1.3 5.25e-01 6.71e-02f  1
  13 -2.4936504e-02 4.46e-12 3.00e-02  -5.7 1.04e-01  -0.9 1.00e+00 1.09e-01f  1
  14 -2.6263636e-02 2.77e-12 1.06e-02  -5.7 2.98e-02  -0.4 1.00e+00 3.78e-01f  1
  15 -2.9335812e-02 2.24e-12 3.01e-02  -5.7 1.45e-01  -0.9 1.00e+00 1.94e-01f  1
  16 -2.2142062e-02 1.29e-12 7.48e-02  -5.7 8.63e-01  -1.4 2.96e-02 4.22e-01h  1
  17 -2.2587049e-02 1.21e-12 5.50e-02  -5.7 2.79e-01  -1.0 8.93e-01 6.58e-02f  1
  18 -2.6194659e-02 2.22e-16 1.08e-02  -5.7 3.70e-02  -0.6 1.00e+00 1.00e+00F  1
  19 -3.9779107e-02 7.98e-12 2.85e-02  -5.7 2.74e-01  -1.0 9.87e-01 4.00e-01f  1
iter    objective    inf_pr   inf_du lg(mu)  ||d||  lg(rg) alpha_du alpha_pr  ls
  20 -4.8022243e-02 1.46e-11 5.01e-02  -5.7 6.91e-02  -0.6 5.16e-01 1.00e+00f  1
  21 -4.9104740e-02 1.24e-11 5.69e-02  -5.7 3.35e-02  -0.2 1.00e+00 1.47e-01f  1
  22 -5.0195863e-02 1.18e-11 4.92e-02  -5.7 1.11e-01  -0.7 7.73e-01 4.96e-02f  1
  23 -5.0135502e-02 1.18e-11 4.20e-02  -5.7 2.68e+00  -1.1 1.52e-02 1.35e-04h  1
  24 -5.3265670e-02 1.08e-11 3.94e-02  -5.7 1.03e-01  -0.7 2.44e-01 1.27e-01f  1
  25 -6.2292470e-02 6.33e-15 1.87e-02  -5.7 3.66e-02  -0.3 1.00e+00 1.00e+00f  1
  26 -7.3049005e-02 6.69e-12 2.38e-02  -5.7 1.75e-01  -0.8 7.16e-02 1.87e-01f  1
  27 -8.2984170e-02 3.02e-12 2.99e-02  -5.7 5.57e-02  -0.3 1.00e+00 5.49e-01f  1
  28 -8.7408055e-02 5.87e-12 3.30e-02  -5.7 2.02e+00  -0.8 1.90e-02 7.11e-03f  1
  29 -1.2150271e-01 2.79e-11 3.96e-02  -5.7 7.26e-02  -0.4 1.00e+00 1.00e+00f  1
iter    objective    inf_pr   inf_du lg(mu)  ||d||  lg(rg) alpha_du alpha_pr  ls
  30 -1.2830923e-01 2.43e-11 3.93e-02  -5.7 3.41e-02   0.0 1.00e+00 3.21e-01f  1
  31 -1.3048576e-01 2.53e-11 1.51e-01  -5.7 1.80e-01  -0.4 8.70e-01 2.01e-02f  1
  32 -1.5721174e-01 4.44e-16 3.48e-02  -5.7 3.25e-02  -0.0 1.00e+00 1.00e+00f  1
  33 -1.6788451e-01 6.45e-12 1.03e-01  -5.7 4.45e-01  -0.5 2.47e-01 3.10e-02f  1
  34 -1.3214660e-01 3.00e-12 2.16e-01  -5.7 4.83e-01  -1.0 1.39e-01 5.35e-01h  1
  35 -1.3426380e-01 2.85e-12 1.32e-01  -5.7 1.13e-01  -0.5 6.01e-01 5.12e-02f  1
  36 -1.3640548e-01 6.14e-12 1.63e-01  -5.7 5.17e-01  -1.0 1.32e-01 1.27e-02f  2
  37 -1.3960013e-01 5.66e-12 1.61e-01  -5.7 1.20e-01  -0.6 1.00e+00 7.75e-02f  1
  38 -1.8399278e-01 4.71e-12 1.89e-01  -5.7 5.76e-01  -1.1 3.50e-01 1.68e-01f  1
  39 -2.3899032e-01 3.16e-12 2.59e-01  -5.7 2.14e-01  -0.6 1.00e+00 3.29e-01f  1
iter    objective    inf_pr   inf_du lg(mu)  ||d||  lg(rg) alpha_du alpha_pr  ls
  40 -2.5987088e-01 2.16e-12 1.68e-01  -5.7 8.74e-02  -0.2 1.00e+00 3.17e-01f  1
  41 -2.3132707e-01 2.13e-12 1.39e-01  -5.7 4.71e+00  -0.7 2.30e-02 1.38e-02h  1
  42 -2.5778224e-01 1.33e-12 1.11e-01  -5.7 8.73e-02  -0.3 1.00e+00 3.76e-01f  1
  43 -2.8714187e-01 2.22e-16 4.61e-02  -5.7 3.01e-02   0.2 1.00e+00 1.00e+00f  1
  44 -3.5647968e-01 2.26e-11 1.40e-01  -5.7 1.48e-01  -0.3 1.00e+00 3.68e-01f  1
  45 -3.5645021e-01 2.30e-11 1.21e-01  -5.7 2.66e-02   0.1 4.05e-02 1.40e-02f  5
  46 -3.5678603e-01 2.32e-11 1.42e-01  -5.7 1.51e-01  -0.4 1.11e-01 4.48e-03f  1
  47 -3.5972232e-01 4.07e-11 1.15e-01  -5.7 3.39e-02   0.1 4.12e-02 1.89e-01f  1
  48 -3.6321143e-01 4.08e-11 1.39e-01  -5.7 1.75e-01  -0.4 4.57e-01 7.44e-02f  1
  49 -3.8148608e-01 2.58e-11 1.01e-01  -5.7 1.74e-01  -0.9 1.89e-01 3.67e-01f  1
iter    objective    inf_pr   inf_du lg(mu)  ||d||  lg(rg) alpha_du alpha_pr  ls
  50 -4.1570583e-01 2.18e-11 4.26e-01  -5.7 4.40e-01    -  1.00e+00 2.61e-01f  1
  51 -4.9679235e-01 1.04e-11 2.63e-01  -5.7 6.53e-01    -  1.00e+00 5.22e-01f  1
  52 -4.9666705e-01 1.03e-11 2.85e-01  -5.7 8.73e-02    -  1.00e+00 7.81e-03f  8
  53 -4.9989741e-01 2.22e-16 3.08e-03  -5.7 4.07e-02    -  1.00e+00 1.00e+00f  1
  54 -4.9988227e-01 4.44e-16 5.79e-03  -5.7 5.24e-05    -  8.98e-01 1.00e+00f  1
  55 -4.9988203e-01 1.33e-15 7.66e-07  -5.7 2.25e-06  -0.5 1.00e+00 1.00e+00h  1
  56 -4.9999999e-01 4.44e-16 3.42e-08  -8.6 9.10e-05    -  1.00e+00 1.00e+00f  1

Number of Iterations....: 56

                                   (scaled)                 (unscaled)
Objective...............:  -4.9999999319713195e-01   -4.9999999319713195e-01
Dual infeasibility......:   3.4244448870391055e-08    3.4244448870391055e-08
Constraint violation....:   4.4408920985006262e-16    4.4408920985006262e-16
Complementarity.........:   2.5679036758099882e-09    2.5679036758099882e-09
Overall NLP error.......:   2.5679036758099882e-09    3.4244448870391055e-08


Number of objective function evaluations             = 74
Number of objective gradient evaluations             = 57
Number of equality constraint evaluations            = 74
Number of inequality constraint evaluations          = 0
Number of equality constraint Jacobian evaluations   = 1
Number of inequality constraint Jacobian evaluations = 0
Number of Lagrangian Hessian evaluations             = 56
Total CPU secs in IPOPT (w/o function evaluations)   =      0.140
Total CPU secs in NLP function evaluations           =      1.030

EXIT: Optimal Solution Found.
